n=150;
k_min=3;
k_max=3;
M=[| 79, 1000, 0
 | 79, 1000, 0
 | 79, 1000, 0
 | 79, 1000, 0
 | 79, 1000, 0
 | 79, 1000, 0
 | 79, 980, 0
 | 79, 940, 0
 | 79, 960, 0
 | 79, 980, 0
 | 79, 940, 0
 | 79, 980, 0
 | 79, 1000, 0
 | 79, 960, 0
 | 79, 1000, 0
 | 79, 1000, 0
 | 79, 1000, 0
 | 79, 1000, 0
 | 79, 1000, 0
 | 79, 1000, 0
 | 79, 920, 0
 | 79, 940, 0
 | 79, 960, 0
 | 79, 1000, 0
 | 79, 1000, 0
 | 79, 980, 0
 | 79, 1000, 0
 | 79, 920, 0
 | 79, 1000, 0
 | 79, 980, 0
 | 79, 980, 0
 | 79, 920, 0
 | 79, 1000, 0
 | 79, 1000, 0
 | 79, 980, 0
 | 79, 980, 0
 | 79, 980, 0
 | 79, 980, 0
 | 79, 960, 0
 | 79, 1000, 0
 | 79, 1000, 0
 | 79, 960, 0
 | 79, 960, 0
 | 79, 1000, 0
 | 79, 1000, 0
 | 79, 1000, 0
 | 79, 1000, 0
 | 79, 1000, 0
 | 79, 1000, 0
 | 79, 1000, 0
 | 1000, 0, 79
 | 1000, 0, 79
 | 1000, 0, 240
 | 1000, 0, 79
 | 1000, 0, 79
 | 1000, 0, 79
 | 980, 0, 79
 | 1000, 79, 0
 | 1000, 0, 79
 | 980, 0, 79
 | 920, 0, 79
 | 940, 0, 79
 | 940, 0, 79
 | 1000, 0, 79
 | 980, 0, 79
 | 1000, 0, 79
 | 920, 0, 79
 | 960, 0, 79
 | 1000, 0, 79
 | 1000, 0, 79
 | 1000, 0, 79
 | 920, 0, 79
 | 920, 0, 79
 | 980, 0, 79
 | 960, 0, 79
 | 1000, 0, 79
 | 1000, 0, 79
 | 960, 0, 240
 | 960, 0, 79
 | 900, 0, 79
 | 960, 0, 79
 | 920, 0, 79
 | 960, 0, 79
 | 940, 0, 79
 | 860, 0, 79
 | 980, 0, 79
 | 1000, 0, 79
 | 920, 0, 79
 | 980, 0, 79
 | 1000, 0, 79
 | 980, 0, 79
 | 1000, 0, 79
 | 960, 0, 79
 | 1000, 79, 0
 | 980, 0, 79
 | 980, 0, 79
 | 980, 0, 79
 | 900, 0, 79
 | 1000, 79, 0
 | 1000, 0, 79
 | 960, 0, 459
 | 960, 0, 79
 | 459, 0, 1000
 | 920, 0, 439
 | 1000, 0, 459
 | 360, 0, 1000
 | 880, 0, 79
 | 360, 0, 960
 | 900, 0, 500
 | 360, 0, 940
 | 1000, 0, 320
 | 1000, 0, 280
 | 960, 0, 459
 | 960, 0, 79
 | 860, 0, 79
 | 960, 0, 439
 | 940, 0, 459
 | 360, 0, 980
 | 360, 0, 1000
 | 920, 0, 79
 | 980, 0, 459
 | 960, 0, 79
 | 360, 0, 1000
 | 940, 0, 79
 | 980, 0, 459
 | 360, 0, 960
 | 980, 0, 79
 | 1000, 0, 79
 | 960, 0, 459
 | 439, 0, 980
 | 360, 0, 960
 | 360, 0, 980
 | 960, 0, 459
 | 920, 0, 79
 | 760, 0, 240
 | 360, 0, 1000
 | 960, 0, 439
 | 920, 0, 439
 | 1000, 0, 79
 | 960, 0, 459
 | 980, 0, 459
 | 940, 0, 439
 | 960, 0, 79
 | 960, 0, 480
 | 960, 0, 459
 | 960, 0, 439
 | 940, 0, 79
 | 1000, 0, 320
 | 960, 0, 439
 | 960, 0, 79 |];
 P=[2, 2, 2, 2, 2, 2, 2, 2, 2, 2, 2, 2, 2, 2, 2, 2, 2, 2, 2, 2, 2, 2, 2, 2, 2, 2, 2, 2, 2, 2, 2, 2, 2, 2, 2, 2, 2, 2, 2, 2, 2, 2, 2, 2, 2, 2, 2, 2, 2, 2, 1, 1, 1, 1, 1, 1, 1, 1, 1, 1, 1, 1, 1, 1, 1, 1, 1, 1, 1, 1, 1, 1, 1, 1, 1, 1, 1, 1, 1, 1, 1, 1, 1, 1, 1, 1, 1, 1, 1, 1, 1, 1, 1, 1, 1, 1, 1, 1, 1, 1, 1, 1, 3, 1, 1, 3, 1, 3, 1, 3, 1, 1, 1, 1, 1, 1, 1, 3, 3, 1, 1, 1, 3, 1, 1, 3, 1, 1, 1, 3, 3, 3, 1, 1, 1, 3, 1, 1, 1, 1, 1, 1, 1, 1, 1, 1, 1, 1, 1, 1 ];